Optimal - objective value 8.00000000
      0 x_0_1                   1                       0
      2 x_1_2                   1                       1
      3 x_1_6                   1                       1
      4 x_2_3                   1                       1
      7 x_3_8                   1                       1
     12 x_6_11                  1                       1
     16 x_8_13                  1                       1
     24 x_13_14                 1                       1
     40 f_0_1     3.99999999999859                       0
     44 f_1_2                   3                       0
     45 f_2_1                   1                       0
     46 f_1_6     2.99999999999929                       0
     47 f_6_1     1.00000000000071                       0
     48 f_2_3                   3                       0
     49 f_3_2                   1                       0
     54 f_3_8     2.49999999999788                       0
     55 f_8_3     1.50000000000212                       0
     64 f_6_11                2.5                       0
     65 f_11_6                1.5                       0
     72 f_8_13    0.999999999995757                       0
     88 f_13_14   0.999999999997172                       0
